c --- [ banner ] -------------------------------------------------------------
c 
c CaDiCaL Radically Simplified CDCL SAT Solver
c Copyright (c) 2016-2021 A. Biere, M. Fleury, N. Froleyks
c 
c Version 1.5.2 a5f15211db36c3956764e18194dd5bd63bf3b5e6
c g++ (GCC) 9.3.0 -Wall -Wextra -O3 -DNDEBUG
c Fri Oct 21 01:27:37 EDT 2022 Linux gra-login3 3.10.0-1160.66.1.el7.x86_64 x86_64
c 
c --- [ limit ] --------------------------------------------------------------
c 
c setting conflict limit to 200000 conflicts (due to '200000')
c 
c --- [ parsing input ] ------------------------------------------------------
c 
c reading DIMACS file from '33.cubes5545.adj'
c opening file to read '33.cubes5545.adj'
c found 'p cnf 6160 1595477' header
c parsed 1595477 clauses in 19.55 seconds process time
c closing file '33.cubes5545.adj'
c after reading 1457566790 bytes 1390.0 MB
c 
c --- [ options ] ------------------------------------------------------------
c 
c all options are set to their default value
c 
c --- [ solving ] ------------------------------------------------------------
c 
c time measured in process time since initialization
c 
c  seconds    reductions  redundant   irredundant
c          MB     restarts       trail       variables
c            level   conflicts       glue         remaining
c 
c * 19.55 1377  0 0   0    0    0  0% 0 1595422 2405 39%
c { 20.39 1423  0 0   0    0    0  0% 0 1595422 2405 39%
c i 20.94 1442 599 0   0   18   17 28% 3 1595422 2373 39%
c i 23.51 1503 203 0   8   82   77 22% 4 1595422 2371 38%
c i 24.39 1514 186 0  12   98   87 23% 10 1595422 2353 38%
c i 25.26 1522 177 0  16  118  102 24% 13 1595422 2326 38%
c i 25.67 1523 170 0  18  123  106 24% 13 1595422 2325 38%
c i 26.36 1525 151 0  24  144  124 24% 13 1595422 2324 38%
c i 27.46 1528 139 0  33  178  156 25% 18 1595422 2323 38%
c i 27.86 1528 127 0  40  206  177 25% 20 1595422 2322 38%
c i 27.88 1528 127 0  41  207  177 25% 20 1595422 2321 38%
c i 27.89 1528 126 0  41  209  178 25% 20 1595422 2320 38%
c i 28.69 1528 117 0  51  247  213 25% 21 1595422 2318 38%
c i 28.85 1530 113 0  53  261  225 25% 20 1595422 2317 38%
c i 28.89 1530 113 0  53  265  225 25% 20 1595422 2313 38%
c i 29.01 1530 113 0  53  267  226 25% 20 1595422 2312 38%
c - 33.62 1452 105 1  57  302  245 25% 19 346994 2312 38%
c i 33.98 1410 103 1  58  329  254 24% 21 346994 2311 38%
c i 34.58 1410 100 1  68  366  278 25% 23 346994 2310 38%
c i 35.66 1411 95 1  83  445  330 25% 23 346994 2309 37%
c 
c  seconds    reductions  redundant   irredundant
c          MB     restarts       trail       variables
c            level   conflicts       glue         remaining
c 
c i 35.69 1411 95 1  83  449  333 25% 22 346994 2308 37%
c i 35.94 1412 92 1  84  474  357 25% 23 346994 2307 37%
c i 36.46 1412 90 1  93  523  394 25% 24 346994 2306 37%
c i 36.73 1412 87 1 102  565  429 26% 25 346994 2305 37%
c i 36.75 1412 86 1 103  568  431 26% 25 346994 2304 37%
c i 36.77 1412 86 1 103  572  434 26% 25 346994 2303 37%
c i 36.79 1412 86 1 104  574  435 26% 25 346994 2302 37%
c i 37.27 1412 83 1 111  613  464 26% 25 346994 2301 37%
c i 37.61 1412 78 1 115  691  531 26% 25 346994 2300 37%
c i 37.66 1412 76 1 118  734  560 26% 25 346994 2299 37%
c i 37.70 1412 75 1 119  760  582 27% 25 346994 2298 37%
c i 37.71 1412 74 1 119  768  588 27% 25 346994 2297 37%
c i 37.98 1413 74 1 122  789  608 27% 25 346994 2296 37%
c i 38.34 1413 72 1 133  851  662 27% 25 346994 2295 37%
c i 38.98 1413 68 1 143  979  761 27% 25 346994 2294 37%
c i 39.02 1413 67 1 143  989  770 27% 25 346994 2293 37%
c i 39.02 1413 67 1 143  991  771 27% 25 346994 2292 37%
c } 39.04 1413 67 1 143 1002  780 27% 25 346994 2292 37%
c [ 39.04 1413  0 1 143 1002  780  0% 0 346994 2292 37%
c O 39.05 1413  2 1 143 1003  781 12% 1 346994 2292 37%
c 
c  seconds    reductions  redundant   irredundant
c          MB     restarts       trail       variables
c            level   conflicts       glue         remaining
c 
c i 39.32 1413 29 1 143 1125  877 31% 25 346994 2291 37%
c i 39.34 1413 28 1 143 1141  891 31% 24 346994 2290 37%
c i 39.37 1413 29 1 143 1178  920 31% 24 346994 2289 37%
c i 39.39 1413 29 1 143 1209  941 32% 24 346994 2288 37%
c - 40.08 1564 29 2 143 1226  883 32% 24 346922 2288 37%
c i 40.23 1564 29 2 143 1251  898 32% 24 346922 2287 37%
c i 40.23 1564 29 2 143 1252  898 32% 24 346922 2286 37%
c i 40.26 1564 29 2 143 1272  908 32% 24 346922 2285 37%
c i 40.32 1564 29 2 143 1341  951 32% 25 346922 2284 37%
c i 40.32 1564 29 2 143 1342  951 32% 25 346922 2283 37%
c i 40.41 1564 28 2 143 1493 1059 32% 24 346922 2282 37%
c i 40.52 1564 27 2 143 1687 1195 32% 23 346922 2281 37%
c i 40.97 1564 24 2 144 2538 1727 31% 21 346922 2280 37%
c i 41.00 1564 24 2 144 2598 1760 31% 21 346922 2279 37%
c - 41.42 1562 24 3 144 2613 1340 31% 21 346895 2279 37%
c ] 41.97 1523 24 3 144 3005 1536 51% 21 346895 2279 37%
c { 41.97 1523 67 3 144 3005 1536 73% 25 346895 2279 37%
c F 42.03 1523 66 3 144 3006 1537 73% 25 346895 2279 37%
c i 42.53 1523 55 3 144 3367 1818 66% 21 346895 2278 37%
c i 42.60 1523 54 3 144 3410 1857 65% 21 346895 2277 37%
c 
c  seconds    reductions  redundant   irredundant
c          MB     restarts       trail       variables
c            level   conflicts       glue         remaining
c 
c i 43.00 1523 55 3 155 3471 1913 64% 22 346895 2276 37%
c i 43.85 1523 56 3 184 3588 2012 63% 24 346895 2275 37%
c i 43.87 1523 56 3 185 3589 2012 63% 24 346895 2274 37%
c i 44.64 1523 54 3 217 3849 2219 61% 25 346895 2273 37%
c i 46.46 1523 55 3 262 4040 2387 60% 26 346895 2272 37%
c i 47.04 1523 55 3 274 4114 2442 59% 26 346895 2271 37%
c i 47.15 1523 54 3 274 4162 2486 59% 25 346895 2270 37%
c i 47.29 1523 53 3 274 4248 2547 58% 25 346895 2269 37%
c i 47.32 1523 53 3 274 4278 2566 58% 25 346895 2268 37%
c i 47.36 1523 52 3 274 4300 2581 58% 25 346895 2267 37%
c - 47.99 1519 51 4 277 4463 1998 58% 25 346859 2267 37%
c p 56.29 1519 46 4 278 5000 6676 56% 24 346841 2212 36%
c d 56.85 1520 46 4 278 5000 6609 56% 24 346714 2209 36%
c } 57.64 1520 41 4 286 5804 7105 55% 22 346714 2209 36%
c 1 57.64 1520 41 4 286 5804 7105 55% 22 346714 2209 36%
c 
c --- [ writing output ] -----------------------------------------------------
c 
c writing simplified CNF to DIMACS file 'simp/33.cubes5545.adj.simp1'
c * 57.64 1520 41 4 286 5804 7105 55% 22 346714 2209 36%
c opening file to write 'simp/33.cubes5545.adj.simp1'
c writing 'p cnf 6160 346714' header
c closing file 'simp/33.cubes5545.adj.simp1'
c after writing 161067960 bytes 153.6 MB
c wrote 346714 clauses in 1.30 seconds process time
c 
c --- [ writing extension ] --------------------------------------------------
c 
c writing extension stack to 'simp/33.cubes5545.adj.ext1'
c opening file to write 'simp/33.cubes5545.adj.ext1'
c closing file 'simp/33.cubes5545.adj.ext1'
c after writing 12228 bytes 0.0 MB
c wrote 819 witnesses in 0.00 seconds process time
c 
c --- [ result ] -------------------------------------------------------------
c 
s SATISFIABLE
c 
c --- [ run-time profiling ] -------------------------------------------------
c 
c process time taken by individual solving procedures
c (percentage relative to process time for solving)
c 
c        29.89   78.46% search
c        26.11   68.55% unstable
c        19.55   51.31% parse
c         8.20   21.54% simplify
c         6.99   18.35% probe
c         2.93    7.70% stable
c         0.84    2.21% lucky
c         0.06    0.15% ternary
c   =================================
c        38.09   64.63% solve
c 
c last line shows process time for solving
c (percentage relative to total process time)
c 
c --- [ statistics ] ---------------------------------------------------------
c 
c chronological:              1441        24.83 %  of conflicts
c conflicts:                  5804       152.36    per second
c decisions:                 28893       758.45    per second
c fixed:                       795        12.91 %  of all variables
c learned:                    5637        97.12 %  per conflict
c learned_lits:            1040120       100.00 %  learned literals
c minimized:                     0         0.00 %  learned literals
c shrunken:                 648384        62.34 %  learned literals
c minishrunken:              84486         8.12 %  learned literals
c propagations:            1035455         0.03 M  per second
c reduced:                    1228        21.16 %  per conflict
c rephased:                      2      2902.00    interval
c restarts:                    286        20.29    interval
c stabilizing:                   1        34.51 %  of conflicts
c substituted:                  12         0.19 %  of all variables
c subsumed:                   1484         0.04 %  of all clauses
c ternary:                    1230         0.57 %  of resolved
c weakened:                     24         2.00    average size
c 
c seconds are measured in process time for solving
c 
c --- [ resources ] ----------------------------------------------------------
c 
c total process time since initialization:        58.94    seconds
c total real time since initialization:           60.31    seconds
c maximum resident set size of process:         1712.48    MB
c 
c --- [ shutting down ] ------------------------------------------------------
c 
c exit 10
WARNING! DIMACS header mismatch: wrong number of variables.
============================[ Problem Statistics ]=============================
|                                                                             |
|  Number of variables:          6120                                         |
|  Number of clauses:          346714                                         |
|  Parse time:                   2.13 s                                       |
|  Simplification time:          0.06 s                                       |
|                                                                             |
============================[ Search Statistics ]====================================================
| Conflicts |          ORIGINAL         |          LEARNT          | Num Sols |      SUBGRAPHS      |
|           |    Vars  Clauses Literals |    Limit  Clauses Lit/Cl |          | Canonical Noncanon. |
=====================================================================================================
|       105 |    6029   346719 34831278 |     2000      105    194 |        0 |        17         5 |
|       255 |    6029   346719 34831278 |     2000      255    130 |        0 |        32         5 |
|       509 |    6029   346748 34831808 |     2000      509    107 |        0 |        61        34 |
|      1251 |    6029   347153 34841214 |     2000     1251     82 |        0 |       143       439 |
|      1896 |    6029   347292 34844852 |     2000     1896     88 |        0 |       207       578 |
|      2683 |    6029   347320 34845631 |     3608     1691     54 |        0 |       243       606 |
|      3993 |    6029   347491 34849171 |     3608     3001     68 |        0 |       326       777 |
|      6048 |    6029   347838 34857043 |     5009     3257     55 |        0 |       423      1124 |
|      9241 |    6029   348469 34873042 |     6308     3949     52 |        0 |       498      1755 |
|     13417 |    6029   348801 34880351 |     7561     4978     53 |        0 |       630      2087 |
|     19286 |    6029   348904 34882919 |     8799     7085     63 |        0 |       669      2190 |
|     28249 |    6029   349218 34889364 |    11214     6663     46 |        0 |       874      2504 |
|     41798 |    6029   349793 34899700 |    13613     8411     45 |        0 |      1014      3079 |
|     63425 |    6029   351959 34939745 |    16013    15838     62 |        0 |      1474      5245 |
|     94340 |    6029   353682 34970230 |    20819    11159     36 |        0 |      1944      6968 |
|    139410 |    6029   354963 34994906 |    24411    23221     62 |        0 |      2487      8249 |
|    213127 |    6029   362996 35156193 |    30409    29936     65 |        0 |      4403     16282 |
|    315219 |    6029   366562 35211669 |    37619    31838     53 |        0 |      5266     19848 |
|    466631 |    6029   370185 35293961 |    46019    39050     64 |        0 |      7106     23471 |
|    690081 |    6029   371952 35333166 |    56821    33902     39 |        0 |      8007     25238 |
|   1027861 |    6029   377207 35433289 |    68813    60674     70 |        0 |      9882     30493 |
|   1545701 |    6029   396259 35776096 |    85631    42332     30 |        0 |     14663     49545 |
|   2320874 |    6029   423250 36252970 |   104825    60699     44 |        0 |     20235     76536 |
|   3491255 |    6029   471357 37220701 |   128816    69071     34 |        1 |     35502    124642 |
|   5237574 |    6029   534265 38634179 |   157626   104200     46 |        1 |     56312    187550 |
|   7822654 |    6029   594229 39912422 |   192420   160474     58 |        1 |     70130    247514 |
|  11677757 |    6029   661657 41162469 |   235647   174404     52 |        5 |     86881    314938 |
|  17491822 |    5978   308129 19187359 |   288046   237268     75 |        7 |    124338    447489 |
=====================================================================================================
Number of solutions   : 9
Canonical subgraphs   : 134251         (13 /sec)
          order  3    : 1              (200000 /sec)
          order  4    : 1              (500000 /sec)
          order  5    : 1              (250000 /sec)
          order  6    : 1              (55556 /sec)
          order  7    : 1              (8929 /sec)
          order  8    : 2              (1358 /sec)
          order  9    : 6              (315 /sec)
          order 10    : 23             (90 /sec)
          order 11    : 99             (29 /sec)
          order 12    : 607            (10 /sec)
          order 13    : 4881           (10 /sec)
          order 14    : 36726          (14 /sec)
          order 15    : 80598          (12 /sec)
          order 16    : 7946           (14 /sec)
          order 17    : 1527           (13 /sec)
          order 18    : 459            (11 /sec)
          order 19    : 363            (12 /sec)
          order 20    : 469            (13 /sec)
          order 21    : 531            (13 /sec)
          order 22    : 9              (1 /sec)
Noncanonical subgraphs: 478997         (188 /sec)
          order  3    : 0              (-nan /sec)
          order  4    : 0              (-nan /sec)
          order  5    : 0              (-nan /sec)
          order  6    : 0              (-nan /sec)
          order  7    : 0              (-nan /sec)
          order  8    : 0              (-nan /sec)
          order  9    : 0              (-nan /sec)
          order 10    : 0              (-nan /sec)
          order 11    : 0              (-nan /sec)
          order 12    : 0              (-nan /sec)
          order 13    : 10908          (7503 /sec)
          order 14    : 154191         (1130 /sec)
          order 15    : 143390         (609 /sec)
          order 16    : 168940         (80 /sec)
          order 17    : 846            (90 /sec)
          order 18    : 82             (41 /sec)
          order 19    : 4              (49 /sec)
          order 20    : 2              (37 /sec)
          order 21    : 2              (35 /sec)
Canonicity checking   : 10578.4 s
Noncanonicity checking: 2546.22 s
Total canonicity time : 13124.6 s
database reductions   : 262
restarts              : 32134
conflicts             : 21071552       (825 /sec)
decisions             : 26009547       (0.00 % random) (1018 /sec)
propagations          : 2315698645     (90616 /sec)
conflict literals     : 2198487036     (57.76 % deleted)
actual reward         : 0.113860
Memory used           : 652.00 MB
CPU time              : 25555.1 s

UNSATISFIABLE
